# Solution for model iteration_64
# Objective value = 3.5724504072276275e+01
0 0
1 0.001
3 0.001
5 0.001
6 30.001
7 5.3173054582395423e+01
8 6.3173054582395423e+01
9 3.0002000000000002e+01
10 40.002
11 5.6971089719611591e+01
13 3.9723489961215307e+01
15 40.003
17 40.003
18 50.003
19 50.004
20 60.004
21 6.2791635887844635e+01
23 9.6693579680826886e+01
25 7.9445977585808777e+01
27 6.0004999999999995e+01
28 70.005
29 8.3681302118368890e+01
31 1.1758324591135113e+02
33 1.1917473020749556e+02
35 1.4272750407227628e+02
c(0,35)_rl 0
c(0,35)_ru 3.5724504072276275e+01
lambda[0] 0
lambda[1] 0
lambda[2] 0
lambda[3] 0
lambda[4] 0
lambda[5] 0
lambda[6] 0
lambda[7] 0
lambda[8] 0
lambda[9] 0
lambda[10] 0
lambda[11] 0
lambda[12] 0
lambda[13] 0
lambda[14] 0
lambda[15] 0
lambda[16] 0
lambda[17] 0
lambda[18] 0
lambda[19] 0
lambda[20] 0
lambda[21] 0
lambda[22] 0
lambda[23] 0
lambda[24] 0
lambda[25] 0
lambda[26] 0
lambda[27] 0
lambda[28] 0
lambda[29] 0
lambda[30] 0
lambda[31] 0
lambda[32] 0
lambda[33] 0
lambda[34] 0
lambda[35] 0
lambda[36] 0
lambda[37] 0
lambda[38] 0
lambda[39] 0
lambda[40] 0
lambda[41] 0
lambda[42] 0
lambda[43] 0
lambda[44] 0
lambda[45] 0
lambda[46] 0
lambda[47] 0
lambda[48] 0
lambda[49] 0
lambda[50] 0
lambda[51] 0
lambda[52] 0
lambda[53] 0
lambda[54] 0
lambda[55] 0
lambda[56] 0
lambda[57] 0
lambda[58] 0
lambda[59] 0
lambda[60] 0
lambda[61] 0
lambda[62] 3.3586684205015388e-01
lambda[63] 6.6413315794984618e-01
phi[0] 2.2314355131420974e-01
